% Instancia Pequeñas #4
% Generada el 2025-11-16 10:21:20

num_trabajadores = 11;
horizonte_dias = 6;
num_semanas = 1;
TURNOS = 1..2;

demanda = array2d(1..horizonte_dias, 1..2, [
  3, 2,
  3, 2,
  3, 1,
  3, 2,
  4, 2,
  4, 2
]);

puntajes = array3d(1..num_trabajadores, 1..horizonte_dias, 1..2, [
  7, 1,
  1, 1,
  9, 10,
  2, 9,
  9, 7,
  7, 1,
  4, 4,
  9, 6,
  10, 0,
  9, 8,
  4, 7,
  0, 1,
  1, 10,
  6, 1,
  4, 3,
  7, 10,
  0, 3,
  2, 1,
  4, 0,
  2, 0,
  9, 7,
  8, 10,
  6, 5,
  0, 2,
  5, 9,
  0, 5,
  10, 9,
  1, 8,
  1, 4,
  9, 6,
  0, 1,
  0, 5,
  0, 6,
  8, 4,
  0, 3,
  4, 9,
  1, 2,
  2, 6,
  7, 4,
  6, 5,
  9, 10,
  7, 2,
  7, 4,
  5, 8,
  5, 3,
  0, 4,
  9, 10,
  1, 1,
  0, 2,
  4, 10,
  3, 6,
  8, 2,
  5, 8,
  2, 10,
  1, 3,
  5, 8,
  5, 6,
  9, 2,
  9, 10,
  9, 10,
  4, 6,
  5, 10,
  2, 6,
  0, 0,
  4, 3,
  3, 7
]);
